c uprop, v00.0, 
c reading from data/prog784.c.cnf
c done reading: 0.003447
p cnf 219 1108
-124 -145 0
-124 -141 0
124 141 145 0
-118 141 145 0
-118 -141 -145 0
118 141 -145 0
118 -141 145 0
124 -136 0
-134 -136 0
-124 134 136 0
-124 -129 134 0
124 -129 -134 0
124 129 134 0
-124 129 -134 0
-125 136 0
-122 -125 0
122 125 -136 0
-120 122 -136 0
-120 -122 136 0
120 122 136 0
120 -122 -136 0
-119 125 0
-116 -119 0
116 119 -125 0
116 -125 -143 0
-116 125 -143 0
116 125 143 0
-116 -125 143 0
119 -147 0
-138 -147 0
-119 138 147 0
-119 138 -148 0
119 -138 -148 0
119 138 148 0
-119 -138 148 0
147 -149 0
-131 -149 0
131 -147 149 0
131 -147 -150 0
-131 147 -150 0
131 147 150 0
-131 -147 150 0
149 -151 0
-127 -151 0
127 -149 151 0
127 -149 -152 0
-127 149 -152 0
127 149 152 0
-127 -149 152 0
141 -153 0
145 -153 0
-141 -145 153 0
-141 -145 -154 0
141 145 -154 0
-141 145 154 0
141 -145 154 0
-134 -141 155 0
-134 -153 155 0
-141 -153 155 0
134 141 -155 0
134 153 -155 0
141 153 -155 0
134 -155 -156 0
141 -155 -156 0
153 -155 -156 0
-134 155 156 0
-141 155 156 0
-153 155 156 0
-134 -141 -153 156 0
134 141 153 -156 0
-122 -134 157 0
-122 -155 157 0
-134 -155 157 0
122 134 -157 0
122 155 -157 0
134 155 -157 0
122 -157 -158 0
134 -157 -158 0
155 -157 -158 0
-122 157 158 0
-134 157 158 0
-155 157 158 0
-122 -134 -155 158 0
122 134 155 -158 0
-116 -122 159 0
-116 -157 159 0
-122 -157 159 0
116 122 -159 0
116 157 -159 0
122 157 -159 0
-114 116 -159 0
-114 122 -159 0
-114 157 -159 0
114 -116 159 0
114 -122 159 0
114 -157 159 0
114 -116 -122 -157 0
-114 116 122 157 0
113 -116 -138 0
113 -138 -159 0
113 -116 -159 0
-113 116 138 0
-113 138 159 0
-113 116 159 0
-112 -113 138 0
-112 -113 116 0
-112 -113 159 0
112 113 -138 0
112 113 -116 0
112 113 -159 0
112 -116 -138 -159 0
-112 116 138 159 0
111 -131 -138 0
111 -113 -131 0
111 -113 -138 0
-111 131 138 0
-111 113 131 0
-111 113 138 0
-110 -111 131 0
-110 -111 138 0
-110 -111 113 0
110 111 -131 0
110 111 -138 0
110 111 -113 0
110 -113 -131 -138 0
-110 113 131 138 0
109 -127 -131 0
109 -111 -127 0
109 -111 -131 0
-109 127 131 0
-109 111 127 0
-109 111 131 0
-109 127 -144 0
-109 131 -144 0
-109 111 -144 0
109 -127 144 0
109 -131 144 0
109 -111 144 0
-111 -127 -131 144 0
111 127 131 -144 0
127 -140 0
109 -140 0
-109 -127 140 0
-109 -127 -133 0
109 127 -133 0
109 -127 133 0
-109 127 133 0
-121 158 0
-121 145 0
121 -145 -158 0
-115 -145 -158 0
-115 145 158 0
115 145 -158 0
115 -145 158 0
-114 137 -141 0
-114 -121 137 0
-121 137 -141 0
114 -137 141 0
114 121 -137 0
121 -137 141 0
114 -130 -137 0
-130 -137 141 0
121 -130 -137 0
-114 130 137 0
130 137 -141 0
-121 130 137 0
-114 -121 130 -141 0
114 121 -130 141 0
-112 126 -134 0
-112 126 -137 0
126 -134 -137 0
112 -126 134 0
112 -126 137 0
-126 134 137 0
-108 112 -126 0
-108 -126 134 0
-108 -126 137 0
108 -112 126 0
108 126 -134 0
108 126 -137 0
108 -112 -134 -137 0
-108 112 134 137 0
107 -110 -122 0
107 -110 -126 0
107 -122 -126 0
-107 110 122 0
-107 110 126 0
-107 122 126 0
-106 -107 110 0
-106 -107 122 0
-106 -107 126 0
106 107 -110 0
106 107 -122 0
106 107 -126 0
106 -110 -122 -126 0
-106 110 122 126 0
105 -116 -144 0
105 -107 -144 0
105 -107 -116 0
-105 116 144 0
-105 107 144 0
-105 107 116 0
-104 -105 144 0
-104 -105 116 0
-104 -105 107 0
104 105 -144 0
104 105 -116 0
104 105 -107 0
104 -107 -116 -144 0
-104 107 116 144 0
103 -133 -138 0
103 -105 -133 0
103 -105 -138 0
-103 133 138 0
-103 105 133 0
-103 105 138 0
-102 -103 133 0
-102 -103 138 0
-102 -103 105 0
102 103 -133 0
102 103 -138 0
102 103 -105 0
102 -105 -133 -138 0
-102 105 133 138 0
101 -131 -140 0
101 -103 -140 0
101 -103 -131 0
-101 131 140 0
-101 103 140 0
-101 103 131 0
-100 -101 140 0
-100 -101 131 0
-100 -101 103 0
100 101 -140 0
100 101 -131 0
100 101 -103 0
100 -103 -131 -140 0
-100 103 131 140 0
-99 127 0
-99 101 0
99 -101 -127 0
-98 -101 -127 0
-98 101 127 0
98 101 -127 0
98 -101 127 0
-97 130 0
-97 145 0
97 -130 -145 0
-96 -130 -145 0
-96 130 145 0
96 -130 145 0
96 130 -145 0
95 -108 -141 0
95 -97 -108 0
95 -97 -141 0
-95 108 141 0
-95 97 108 0
-95 97 141 0
-94 -95 108 0
-94 -95 141 0
-94 -95 97 0
94 95 -108 0
94 95 -141 0
94 95 -97 0
94 -97 -108 -141 0
-94 97 108 141 0
93 -106 -134 0
93 -95 -106 0
93 -95 -134 0
-93 106 134 0
-93 95 106 0
-93 95 134 0
-93 106 -160 0
-93 134 -160 0
-93 95 -160 0
93 -106 160 0
93 -134 160 0
93 -95 160 0
-95 -106 -134 160 0
95 106 134 -160 0
-104 -122 161 0
-93 -104 161 0
-93 -122 161 0
104 122 -161 0
93 104 -161 0
93 122 -161 0
104 -161 -162 0
122 -161 -162 0
93 -161 -162 0
-104 161 162 0
-122 161 162 0
-93 161 162 0
-93 -104 -122 162 0
93 104 122 -162 0
-102 -116 163 0
-102 -161 163 0
-116 -161 163 0
102 116 -163 0
102 161 -163 0
116 161 -163 0
102 -163 -164 0
116 -163 -164 0
161 -163 -164 0
-102 163 164 0
-116 163 164 0
-161 163 164 0
-102 -116 -161 164 0
102 116 161 -164 0
-100 -138 165 0
-100 -163 165 0
-138 -163 165 0
100 138 -165 0
100 163 -165 0
138 163 -165 0
100 -165 -166 0
138 -165 -166 0
163 -165 -166 0
-100 165 166 0
-138 165 166 0
-163 165 166 0
-100 -138 -163 166 0
100 138 163 -166 0
-98 -131 167 0
-98 -165 167 0
-131 -165 167 0
98 131 -167 0
98 165 -167 0
131 165 -167 0
98 -167 -168 0
131 -167 -168 0
165 -167 -168 0
-98 167 168 0
-131 167 168 0
-165 167 168 0
-98 -131 -165 168 0
98 131 165 -168 0
-99 -127 169 0
-99 -167 169 0
-127 -167 169 0
99 127 -169 0
99 167 -169 0
127 167 -169 0
99 -169 -170 0
127 -169 -170 0
167 -169 -170 0
-99 169 170 0
-127 169 170 0
-167 169 170 0
-99 -127 -167 170 0
99 127 167 -170 0
-145 -171 0
-154 -171 0
145 154 171 0
145 154 -172 0
-145 -154 -172 0
-145 154 172 0
145 -154 172 0
171 -173 0
-156 -173 0
156 -171 173 0
156 -171 -174 0
-156 171 -174 0
156 171 174 0
-156 -171 174 0
173 -175 0
-115 -175 0
115 -173 175 0
115 -173 -176 0
-115 173 -176 0
115 173 176 0
-115 -173 176 0
175 -177 0
-96 -177 0
96 -175 177 0
96 -175 -178 0
-96 175 -178 0
96 175 178 0
-96 -175 178 0
177 -179 0
-94 -179 0
94 -177 179 0
94 -177 -180 0
-94 177 -180 0
94 177 180 0
-94 -177 180 0
179 -181 0
-160 -181 0
160 -179 181 0
160 -179 -182 0
-160 179 -182 0
160 179 182 0
-160 -179 182 0
181 -183 0
-162 -183 0
162 -181 183 0
162 -181 -184 0
-162 181 -184 0
162 181 184 0
-162 -181 184 0
183 -185 0
-164 -185 0
164 -183 185 0
164 -183 -186 0
-164 183 -186 0
164 183 186 0
-164 -183 186 0
185 -187 0
-166 -187 0
166 -185 187 0
166 -185 -188 0
-166 185 -188 0
166 185 188 0
-166 -185 188 0
187 -189 0
-168 -189 0
168 -187 189 0
168 -187 -190 0
-168 187 -190 0
168 187 190 0
-168 -187 190 0
189 -191 0
-170 -191 0
170 -189 191 0
170 -189 -192 0
-170 189 -192 0
170 189 192 0
-170 -189 192 0
191 -193 0
-169 -193 0
169 -191 193 0
169 -191 -194 0
-169 191 -194 0
169 191 194 0
-169 -191 194 0
-195 -197 0
-197 -198 0
195 197 198 0
195 198 -200 0
-195 -198 -200 0
-195 198 200 0
195 -198 200 0
197 -201 0
-201 -202 0
-197 201 202 0
-197 202 -204 0
197 -202 -204 0
197 202 204 0
-197 -202 204 0
201 -205 0
-205 -206 0
-201 205 206 0
-201 206 -208 0
201 -206 -208 0
201 206 208 0
-201 -206 208 0
205 -209 0
-209 -210 0
-205 209 210 0
-205 210 -212 0
205 -210 -212 0
205 210 212 0
-205 -210 212 0
209 -213 0
-213 -214 0
-209 213 214 0
-146 -209 214 0
-146 209 -214 0
146 209 214 0
146 -209 -214 0
-142 213 0
-142 -216 0
142 -213 216 0
-135 -213 216 0
-135 213 -216 0
135 213 216 0
135 -213 -216 0
-123 142 0
-123 -218 0
123 -142 218 0
-117 -142 218 0
-117 142 -218 0
117 142 218 0
117 -142 -218 0
-139 198 0
-139 195 0
139 -195 -198 0
-132 -195 -198 0
-132 195 198 0
132 195 -198 0
132 -195 198 0
128 -198 -202 0
128 -139 -202 0
128 -139 -198 0
-128 198 202 0
-128 139 202 0
-128 139 198 0
-128 -196 202 0
-128 -196 198 0
-128 139 -196 0
128 196 -202 0
128 196 -198 0
128 -139 196 0
-139 196 -198 -202 0
139 -196 198 202 0
199 -202 -206 0
-128 199 -206 0
-128 199 -202 0
-199 202 206 0
128 -199 206 0
128 -199 202 0
-199 -203 206 0
-199 202 -203 0
128 -199 -203 0
199 203 -206 0
199 -202 203 0
-128 199 203 0
-128 -202 203 -206 0
128 202 -203 206 0
-206 207 -210 0
-199 207 -210 0
-199 -206 207 0
206 -207 210 0
199 -207 210 0
199 206 -207 0
-207 210 -211 0
206 -207 -211 0
199 -207 -211 0
207 -210 211 0
-206 207 211 0
-199 207 211 0
-199 -206 -210 211 0
199 206 210 -211 0
-210 -214 215 0
-207 -214 215 0
-207 -210 215 0
210 214 -215 0
207 214 -215 0
207 210 -215 0
214 -215 -217 0
210 -215 -217 0
207 -215 -217 0
-214 215 217 0
-210 215 217 0
-207 215 217 0
-207 -210 -214 217 0
207 210 214 -217 0
-214 -216 219 0
-215 -216 219 0
-214 -215 219 0
214 216 -219 0
215 216 -219 0
214 215 -219 0
-92 216 -219 0
-92 214 -219 0
-92 215 -219 0
92 -216 219 0
92 -214 219 0
92 -215 219 0
92 -214 -215 -216 0
-92 214 215 216 0
91 -216 -218 0
91 -218 -219 0
91 -216 -219 0
-91 216 218 0
-91 218 219 0
-91 216 219 0
-90 -91 218 0
-90 -91 216 0
-90 -91 219 0
90 91 -218 0
90 91 -216 0
90 91 -219 0
90 -216 -218 -219 0
-90 216 218 219 0
-89 218 0
-89 91 0
89 -91 -218 0
-88 -91 -218 0
-88 91 218 0
88 91 -218 0
88 -91 218 0
-87 203 0
-87 195 0
87 -195 -203 0
-86 -195 -203 0
-86 195 203 0
86 195 -203 0
86 -195 203 0
85 -198 -211 0
85 -87 -211 0
85 -87 -198 0
-85 198 211 0
-85 87 211 0
-85 87 198 0
-84 -85 211 0
-84 -85 198 0
-84 -85 87 0
84 85 -211 0
84 85 -198 0
84 85 -87 0
84 -87 -198 -211 0
-84 87 198 211 0
83 -202 -217 0
83 -85 -217 0
83 -85 -202 0
-83 202 217 0
-83 85 217 0
-83 85 202 0
-82 -83 217 0
-82 -83 202 0
-82 -83 85 0
82 83 -217 0
82 83 -202 0
82 83 -85 0
82 -85 -202 -217 0
-82 85 202 217 0
81 -92 -206 0
81 -83 -92 0
81 -83 -206 0
-81 92 206 0
-81 83 92 0
-81 83 206 0
-80 -81 92 0
-80 -81 206 0
-80 -81 83 0
80 81 -92 0
80 81 -206 0
80 81 -83 0
80 -83 -92 -206 0
-80 83 92 206 0
79 -90 -210 0
79 -81 -90 0
79 -81 -210 0
-79 90 210 0
-79 81 90 0
-79 81 210 0
-78 -79 90 0
-78 -79 210 0
-78 -79 81 0
78 79 -90 0
78 79 -210 0
78 79 -81 0
78 -81 -90 -210 0
-78 81 90 210 0
77 -88 -214 0
77 -79 -88 0
77 -79 -214 0
-77 88 214 0
-77 79 88 0
-77 79 214 0
-76 -77 88 0
-76 -77 214 0
-76 -77 79 0
76 77 -88 0
76 77 -214 0
76 77 -79 0
76 -79 -88 -214 0
-76 79 88 214 0
75 -89 -216 0
75 -77 -89 0
75 -77 -216 0
-75 89 216 0
-75 77 89 0
-75 77 216 0
-74 -75 89 0
-74 -75 216 0
-74 -75 77 0
74 75 -89 0
74 75 -216 0
74 75 -77 0
74 -77 -89 -216 0
-74 77 89 216 0
-73 218 0
-73 75 0
73 -75 -218 0
-72 -75 -218 0
-72 75 218 0
72 75 -218 0
72 -75 218 0
-71 84 0
-71 195 0
71 -84 -195 0
-70 -84 -195 0
-70 84 195 0
70 -84 195 0
70 84 -195 0
69 -82 -198 0
69 -71 -82 0
69 -71 -198 0
-69 82 198 0
-69 71 82 0
-69 71 198 0
-68 -69 82 0
-68 -69 198 0
-68 -69 71 0
68 69 -82 0
68 69 -198 0
68 69 -71 0
68 -71 -82 -198 0
-68 71 82 198 0
67 -80 -202 0
67 -69 -80 0
67 -69 -202 0
-67 80 202 0
-67 69 80 0
-67 69 202 0
-66 -67 80 0
-66 -67 202 0
-66 -67 69 0
66 67 -80 0
66 67 -202 0
66 67 -69 0
66 -69 -80 -202 0
-66 69 80 202 0
65 -78 -206 0
65 -67 -78 0
65 -67 -206 0
-65 78 206 0
-65 67 78 0
-65 67 206 0
-64 -65 78 0
-64 -65 206 0
-64 -65 67 0
64 65 -78 0
64 65 -206 0
64 65 -67 0
64 -67 -78 -206 0
-64 67 78 206 0
63 -76 -210 0
63 -65 -76 0
63 -65 -210 0
-63 76 210 0
-63 65 76 0
-63 65 210 0
-62 -63 76 0
-62 -63 210 0
-62 -63 65 0
62 63 -76 0
62 63 -210 0
62 63 -65 0
62 -65 -76 -210 0
-62 65 76 210 0
61 -74 -214 0
61 -63 -74 0
61 -63 -214 0
-61 74 214 0
-61 63 74 0
-61 63 214 0
-60 -61 74 0
-60 -61 214 0
-60 -61 63 0
60 61 -74 0
60 61 -214 0
60 61 -63 0
60 -63 -74 -214 0
-60 63 74 214 0
59 -72 -216 0
59 -61 -72 0
59 -61 -216 0
-59 72 216 0
-59 61 72 0
-59 61 216 0
-58 -59 72 0
-58 -59 216 0
-58 -59 61 0
58 59 -72 0
58 59 -216 0
58 59 -61 0
58 -61 -72 -216 0
-58 61 72 216 0
57 -73 -218 0
57 -59 -73 0
57 -59 -218 0
-57 73 218 0
-57 59 73 0
-57 59 218 0
-56 -57 73 0
-56 -57 218 0
-56 -57 59 0
56 57 -73 0
56 57 -218 0
56 57 -59 0
56 -59 -73 -218 0
-56 59 73 218 0
-55 68 0
-55 195 0
55 -68 -195 0
-54 -68 -195 0
-54 68 195 0
54 -68 195 0
54 68 -195 0
53 -66 -198 0
53 -55 -66 0
53 -55 -198 0
-53 66 198 0
-53 55 66 0
-53 55 198 0
-52 -53 66 0
-52 -53 198 0
-52 -53 55 0
52 53 -66 0
52 53 -198 0
52 53 -55 0
52 -55 -66 -198 0
-52 55 66 198 0
51 -64 -202 0
51 -53 -64 0
51 -53 -202 0
-51 64 202 0
-51 53 64 0
-51 53 202 0
-50 -51 64 0
-50 -51 202 0
-50 -51 53 0
50 51 -64 0
50 51 -202 0
50 51 -53 0
50 -53 -64 -202 0
-50 53 64 202 0
49 -62 -206 0
49 -51 -62 0
49 -51 -206 0
-49 62 206 0
-49 51 62 0
-49 51 206 0
-48 -49 62 0
-48 -49 206 0
-48 -49 51 0
48 49 -62 0
48 49 -206 0
48 49 -51 0
48 -51 -62 -206 0
-48 51 62 206 0
47 -60 -210 0
47 -49 -60 0
47 -49 -210 0
-47 60 210 0
-47 49 60 0
-47 49 210 0
-46 -47 60 0
-46 -47 210 0
-46 -47 49 0
46 47 -60 0
46 47 -210 0
46 47 -49 0
46 -49 -60 -210 0
-46 49 60 210 0
45 -58 -214 0
45 -47 -58 0
45 -47 -214 0
-45 58 214 0
-45 47 58 0
-45 47 214 0
-44 -45 58 0
-44 -45 214 0
-44 -45 47 0
44 45 -58 0
44 45 -214 0
44 45 -47 0
44 -47 -58 -214 0
-44 47 58 214 0
43 -56 -216 0
43 -45 -56 0
43 -45 -216 0
-43 56 216 0
-43 45 56 0
-43 45 216 0
-42 -43 56 0
-42 -43 216 0
-42 -43 45 0
42 43 -56 0
42 43 -216 0
42 43 -45 0
42 -45 -56 -216 0
-42 45 56 216 0
41 -57 -218 0
41 -43 -57 0
41 -43 -218 0
-41 57 218 0
-41 43 57 0
-41 43 218 0
-40 -41 57 0
-40 -41 218 0
-40 -41 43 0
40 41 -57 0
40 41 -218 0
40 41 -43 0
40 -43 -57 -218 0
-40 43 57 218 0
-39 -195 0
-39 -132 0
39 132 195 0
-38 132 195 0
-38 -132 -195 0
38 132 -195 0
38 -132 195 0
-37 39 0
-37 -196 0
37 -39 196 0
-36 -39 196 0
-36 39 -196 0
36 39 196 0
36 -39 -196 0
-35 37 0
-35 -86 0
35 -37 86 0
-34 -37 86 0
-34 37 -86 0
34 37 86 0
34 -37 -86 0
-33 35 0
-33 -70 0
33 -35 70 0
-32 -35 70 0
-32 35 -70 0
32 35 70 0
32 -35 -70 0
-31 33 0
-31 -54 0
31 -33 54 0
-30 -33 54 0
-30 33 -54 0
30 33 54 0
30 -33 -54 0
-29 31 0
-29 -52 0
29 -31 52 0
-28 -31 52 0
-28 31 -52 0
28 31 52 0
28 -31 -52 0
-27 29 0
-27 -50 0
27 -29 50 0
-26 -29 50 0
-26 29 -50 0
26 29 50 0
26 -29 -50 0
-25 27 0
-25 -48 0
25 -27 48 0
-24 -27 48 0
-24 27 -48 0
24 27 48 0
24 -27 -48 0
-23 25 0
-23 -46 0
23 -25 46 0
-22 -25 46 0
-22 25 -46 0
22 25 46 0
22 -25 -46 0
-21 23 0
-21 -44 0
21 -23 44 0
-20 -23 44 0
-20 23 -44 0
20 23 44 0
20 -23 -44 0
-19 21 0
-19 -42 0
19 -21 42 0
-18 -21 42 0
-18 21 -42 0
18 21 42 0
18 -21 -42 0
-17 19 0
-17 -40 0
17 -19 40 0
-16 -19 40 0
-16 19 -40 0
16 19 40 0
16 -19 -40 0
-15 17 0
-15 -41 0
15 -17 41 0
-14 -17 41 0
-14 17 -41 0
14 17 41 0
14 -17 -41 0
-13 145 0
-13 195 0
13 -145 -195 0
-145 -195 0
145 195 0
12 -132 -154 0
12 -13 -154 0
12 -13 -132 0
-12 132 154 0
-12 13 154 0
-12 13 132 0
-12 154 0
-12 132 0
-12 13 0
13 132 154 0
11 -156 -196 0
11 -12 -156 0
11 -12 -196 0
-11 156 196 0
-11 12 156 0
-11 12 196 0
11 -156 0
11 -196 0
11 -12 0
-12 -156 -196 0
10 -86 -115 0
10 -11 -115 0
10 -11 -86 0
-10 86 115 0
-10 11 115 0
-10 11 86 0
-10 115 0
-10 86 0
-10 11 0
11 86 115 0
9 -70 -96 0
9 -10 -96 0
9 -10 -70 0
-9 70 96 0
-9 10 96 0
-9 10 70 0
-9 96 0
-9 70 0
-9 10 0
10 70 96 0
8 -54 -94 0
8 -9 -94 0
8 -9 -54 0
-8 54 94 0
-8 9 94 0
-8 9 54 0
-8 94 0
-8 54 0
-8 9 0
9 54 94 0
7 -52 -160 0
7 -8 -160 0
7 -8 -52 0
-7 52 160 0
-7 8 160 0
-7 8 52 0
-7 160 0
-7 52 0
-7 8 0
8 52 160 0
6 -50 -162 0
6 -7 -162 0
6 -7 -50 0
-6 50 162 0
-6 7 162 0
-6 7 50 0
6 -162 0
6 -50 0
6 -7 0
-7 -50 -162 0
5 -48 -164 0
5 -6 -164 0
5 -6 -48 0
-5 48 164 0
-5 6 164 0
-5 6 48 0
5 -164 0
5 -48 0
5 -6 0
-6 -48 -164 0
4 -46 -166 0
4 -5 -166 0
4 -5 -46 0
-4 46 166 0
-4 5 166 0
-4 5 46 0
4 -166 0
4 -46 0
4 -5 0
-5 -46 -166 0
3 -44 -168 0
3 -4 -168 0
3 -4 -44 0
-3 44 168 0
-3 4 168 0
-3 4 44 0
3 -168 0
3 -44 0
3 -4 0
-4 -44 -168 0
2 -42 -170 0
2 -3 -170 0
2 -3 -42 0
-2 42 170 0
-2 3 170 0
-2 3 42 0
2 -170 0
2 -42 0
2 -3 0
-3 -42 -170 0
1 -40 -169 0
1 -2 -169 0
1 -2 -40 0
-1 40 169 0
-1 2 169 0
-1 2 40 0
1 -169 0
1 -40 0
1 -2 0
-2 -40 -169 0
-1 -41 0
1 -41 0
-1 41 0
